c "random instance"
p edges 150 4450
e 1 2
e 1 4
e 1 7
e 1 8
e 1 9
e 1 10
e 1 16
e 1 17
e 1 19
e 1 23
e 1 24
e 1 26
e 1 28
e 1 29
e 1 32
e 1 33
e 1 35
e 1 36
e 1 38
e 1 40
e 1 42
e 1 43
e 1 49
e 1 56
e 1 57
e 1 59
e 1 64
e 1 67
e 1 71
e 1 77
e 1 79
e 1 84
e 1 85
e 1 88
e 1 89
e 1 90
e 1 94
e 1 99
e 1 102
e 1 104
e 1 106
e 1 107
e 1 109
e 1 113
e 1 115
e 1 119
e 1 120
e 1 121
e 1 123
e 1 125
e 1 126
e 1 127
e 1 128
e 1 133
e 1 135
e 1 136
e 1 137
e 1 139
e 1 143
e 1 146
e 1 147
e 2 3
e 2 4
e 2 8
e 2 10
e 2 11
e 2 13
e 2 14
e 2 15
e 2 16
e 2 19
e 2 22
e 2 23
e 2 24
e 2 26
e 2 27
e 2 28
e 2 36
e 2 39
e 2 42
e 2 43
e 2 44
e 2 45
e 2 46
e 2 49
e 2 51
e 2 55
e 2 59
e 2 62
e 2 67
e 2 68
e 2 74
e 2 76
e 2 85
e 2 89
e 2 91
e 2 93
e 2 94
e 2 96
e 2 97
e 2 103
e 2 111
e 2 114
e 2 115
e 2 116
e 2 117
e 2 119
e 2 120
e 2 121
e 2 125
e 2 127
e 2 128
e 2 129
e 2 131
e 2 133
e 2 136
e 2 137
e 2 140
e 2 141
e 2 143
e 2 146
e 2 150
e 3 6
e 3 7
e 3 12
e 3 16
e 3 18
e 3 19
e 3 22
e 3 26
e 3 30
e 3 33
e 3 38
e 3 40
e 3 41
e 3 43
e 3 44
e 3 47
e 3 52
e 3 53
e 3 54
e 3 56
e 3 57
e 3 59
e 3 62
e 3 63
e 3 66
e 3 69
e 3 70
e 3 72
e 3 78
e 3 82
e 3 85
e 3 86
e 3 87
e 3 88
e 3 90
e 3 92
e 3 93
e 3 95
e 3 97
e 3 98
e 3 99
e 3 102
e 3 103
e 3 105
e 3 108
e 3 109
e 3 115
e 3 116
e 3 117
e 3 118
e 3 123
e 3 125
e 3 133
e 3 134
e 3 136
e 3 138
e 3 139
e 3 142
e 3 146
e 3 150
e 4 5
e 4 6
e 4 7
e 4 8
e 4 10
e 4 12
e 4 13
e 4 15
e 4 16
e 4 18
e 4 31
e 4 33
e 4 37
e 4 42
e 4 43
e 4 46
e 4 48
e 4 55
e 4 58
e 4 59
e 4 61
e 4 63
e 4 73
e 4 74
e 4 77
e 4 80
e 4 82
e 4 91
e 4 93
e 4 96
e 4 98
e 4 99
e 4 102
e 4 104
e 4 107
e 4 108
e 4 110
e 4 114
e 4 115
e 4 118
e 4 122
e 4 124
e 4 126
e 4 127
e 4 130
e 4 134
e 4 137
e 4 138
e 4 143
e 4 145
e 4 146
e 4 147
e 4 149
e 5 6
e 5 8
e 5 9
e 5 10
e 5 11
e 5 14
e 5 17
e 5 20
e 5 23
e 5 31
e 5 34
e 5 39
e 5 40
e 5 44
e 5 47
e 5 54
e 5 56
e 5 58
e 5 59
e 5 64
e 5 66
e 5 67
e 5 68
e 5 69
e 5 70
e 5 71
e 5 73
e 5 77
e 5 80
e 5 86
e 5 92
e 5 95
e 5 96
e 5 98
e 5 101
e 5 103
e 5 106
e 5 107
e 5 108
e 5 115
e 5 116
e 5 117
e 5 119
e 5 120
e 5 121
e 5 125
e 5 127
e 5 128
e 5 130
e 5 131
e 5 132
e 5 133
e 5 135
e 5 137
e 5 139
e 5 140
e 5 142
e 5 144
e 5 150
e 6 9
e 6 10
e 6 12
e 6 13
e 6 15
e 6 16
e 6 20
e 6 23
e 6 26
e 6 29
e 6 31
e 6 35
e 6 38
e 6 40
e 6 41
e 6 42
e 6 44
e 6 45
e 6 47
e 6 50
e 6 54
e 6 62
e 6 66
e 6 67
e 6 68
e 6 72
e 6 74
e 6 77
e 6 79
e 6 82
e 6 87
e 6 88
e 6 89
e 6 90
e 6 91
e 6 92
e 6 93
e 6 94
e 6 96
e 6 97
e 6 101
e 6 102
e 6 104
e 6 106
e 6 107
e 6 108
e 6 111
e 6 112
e 6 116
e 6 117
e 6 118
e 6 119
e 6 120
e 6 122
e 6 124
e 6 127
e 6 133
e 6 135
e 6 136
e 6 138
e 6 141
e 6 144
e 6 146
e 6 148
e 7 8
e 7 13
e 7 14
e 7 17
e 7 18
e 7 20
e 7 21
e 7 28
e 7 32
e 7 36
e 7 37
e 7 40
e 7 43
e 7 45
e 7 52
e 7 54
e 7 55
e 7 61
e 7 62
e 7 64
e 7 68
e 7 69
e 7 72
e 7 76
e 7 78
e 7 82
e 7 86
e 7 90
e 7 91
e 7 92
e 7 96
e 7 100
e 7 105
e 7 107
e 7 108
e 7 110
e 7 111
e 7 113
e 7 117
e 7 121
e 7 124
e 7 126
e 7 127
e 7 128
e 7 131
e 7 135
e 7 141
e 7 142
e 7 143
e 7 144
e 7 146
e 8 9
e 8 12
e 8 18
e 8 20
e 8 21
e 8 22
e 8 27
e 8 28
e 8 30
e 8 32
e 8 34
e 8 43
e 8 45
e 8 50
e 8 52
e 8 56
e 8 59
e 8 60
e 8 61
e 8 63
e 8 64
e 8 68
e 8 71
e 8 76
e 8 78
e 8 82
e 8 84
e 8 88
e 8 90
e 8 93
e 8 98
e 8 100
e 8 103
e 8 104
e 8 105
e 8 106
e 8 108
e 8 110
e 8 111
e 8 120
e 8 121
e 8 123
e 8 127
e 8 128
e 8 129
e 8 131
e 8 132
e 8 141
e 8 142
e 8 143
e 8 145
e 8 146
e 9 10
e 9 11
e 9 21
e 9 27
e 9 30
e 9 31
e 9 34
e 9 40
e 9 42
e 9 43
e 9 45
e 9 46
e 9 50
e 9 51
e 9 55
e 9 61
e 9 63
e 9 70
e 9 71
e 9 72
e 9 77
e 9 83
e 9 86
e 9 88
e 9 91
e 9 92
e 9 95
e 9 96
e 9 99
e 9 101
e 9 102
e 9 104
e 9 105
e 9 108
e 9 109
e 9 111
e 9 113
e 9 114
e 9 118
e 9 119
e 9 120
e 9 123
e 9 125
e 9 128
e 9 130
e 9 131
e 9 132
e 9 133
e 9 135
e 9 136
e 9 139
e 9 140
e 9 143
e 9 146
e 9 148
e 9 150
e 10 11
e 10 14
e 10 15
e 10 16
e 10 18
e 10 19
e 10 20
e 10 28
e 10 31
e 10 32
e 10 35
e 10 38
e 10 41
e 10 43
e 10 47
e 10 48
e 10 49
e 10 53
e 10 57
e 10 58
e 10 68
e 10 71
e 10 72
e 10 73
e 10 74
e 10 77
e 10 79
e 10 82
e 10 87
e 10 88
e 10 89
e 10 93
e 10 95
e 10 96
e 10 100
e 10 105
e 10 108
e 10 109
e 10 112
e 10 113
e 10 114
e 10 117
e 10 118
e 10 125
e 10 126
e 10 127
e 10 129
e 10 130
e 10 132
e 10 134
e 10 135
e 10 136
e 10 137
e 10 139
e 10 145
e 10 147
e 11 12
e 11 13
e 11 14
e 11 17
e 11 19
e 11 21
e 11 24
e 11 30
e 11 33
e 11 34
e 11 36
e 11 37
e 11 40
e 11 41
e 11 42
e 11 44
e 11 46
e 11 47
e 11 49
e 11 52
e 11 54
e 11 56
e 11 57
e 11 59
e 11 62
e 11 67
e 11 73
e 11 78
e 11 81
e 11 82
e 11 83
e 11 87
e 11 89
e 11 90
e 11 91
e 11 94
e 11 95
e 11 96
e 11 97
e 11 98
e 11 99
e 11 100
e 11 102
e 11 111
e 11 112
e 11 113
e 11 115
e 11 118
e 11 120
e 11 122
e 11 129
e 11 134
e 11 136
e 11 139
e 11 142
e 11 143
e 11 148
e 11 149
e 11 150
e 12 13
e 12 14
e 12 19
e 12 20
e 12 22
e 12 24
e 12 26
e 12 27
e 12 28
e 12 29
e 12 34
e 12 37
e 12 42
e 12 45
e 12 46
e 12 47
e 12 48
e 12 49
e 12 50
e 12 51
e 12 56
e 12 57
e 12 58
e 12 60
e 12 62
e 12 63
e 12 64
e 12 66
e 12 67
e 12 68
e 12 71
e 12 73
e 12 75
e 12 79
e 12 80
e 12 85
e 12 87
e 12 89
e 12 91
e 12 92
e 12 96
e 12 97
e 12 103
e 12 104
e 12 113
e 12 115
e 12 116
e 12 118
e 12 120
e 12 124
e 12 125
e 12 129
e 12 130
e 12 133
e 12 134
e 12 138
e 12 140
e 12 141
e 12 143
e 12 145
e 12 147
e 12 149
e 13 15
e 13 17
e 13 22
e 13 26
e 13 27
e 13 28
e 13 32
e 13 35
e 13 38
e 13 39
e 13 41
e 13 42
e 13 43
e 13 45
e 13 47
e 13 48
e 13 49
e 13 50
e 13 51
e 13 52
e 13 53
e 13 55
e 13 56
e 13 57
e 13 64
e 13 66
e 13 68
e 13 70
e 13 72
e 13 73
e 13 77
e 13 83
e 13 88
e 13 91
e 13 98
e 13 99
e 13 103
e 13 104
e 13 106
e 13 110
e 13 113
e 13 115
e 13 116
e 13 118
e 13 125
e 13 126
e 13 127
e 13 130
e 13 132
e 13 135
e 13 136
e 13 138
e 13 141
e 13 142
e 13 143
e 13 145
e 13 150
e 14 15
e 14 16
e 14 17
e 14 18
e 14 24
e 14 28
e 14 31
e 14 32
e 14 33
e 14 34
e 14 41
e 14 44
e 14 46
e 14 49
e 14 50
e 14 57
e 14 59
e 14 61
e 14 62
e 14 65
e 14 67
e 14 68
e 14 70
e 14 71
e 14 73
e 14 74
e 14 76
e 14 78
e 14 80
e 14 81
e 14 90
e 14 91
e 14 93
e 14 94
e 14 95
e 14 97
e 14 98
e 14 99
e 14 100
e 14 107
e 14 108
e 14 110
e 14 118
e 14 119
e 14 120
e 14 122
e 14 124
e 14 125
e 14 126
e 14 127
e 14 130
e 14 135
e 14 137
e 14 138
e 14 142
e 14 144
e 14 146
e 14 147
e 15 18
e 15 21
e 15 23
e 15 27
e 15 28
e 15 30
e 15 31
e 15 33
e 15 35
e 15 40
e 15 41
e 15 43
e 15 44
e 15 46
e 15 50
e 15 51
e 15 52
e 15 55
e 15 56
e 15 60
e 15 61
e 15 62
e 15 65
e 15 67
e 15 70
e 15 72
e 15 74
e 15 75
e 15 77
e 15 79
e 15 80
e 15 81
e 15 82
e 15 85
e 15 86
e 15 87
e 15 89
e 15 90
e 15 96
e 15 99
e 15 101
e 15 103
e 15 104
e 15 105
e 15 115
e 15 125
e 15 126
e 15 127
e 15 128
e 15 130
e 15 135
e 15 137
e 15 138
e 15 140
e 15 141
e 15 142
e 15 146
e 15 147
e 15 148
e 16 18
e 16 22
e 16 25
e 16 28
e 16 29
e 16 30
e 16 31
e 16 32
e 16 33
e 16 36
e 16 38
e 16 40
e 16 43
e 16 52
e 16 54
e 16 56
e 16 61
e 16 63
e 16 64
e 16 68
e 16 69
e 16 73
e 16 74
e 16 76
e 16 77
e 16 79
e 16 80
e 16 84
e 16 86
e 16 93
e 16 94
e 16 95
e 16 98
e 16 99
e 16 100
e 16 104
e 16 109
e 16 110
e 16 111
e 16 112
e 16 122
e 16 123
e 16 124
e 16 127
e 16 131
e 16 134
e 16 135
e 16 136
e 16 139
e 16 146
e 16 147
e 17 19
e 17 20
e 17 21
e 17 23
e 17 26
e 17 28
e 17 37
e 17 39
e 17 41
e 17 43
e 17 46
e 17 51
e 17 54
e 17 55
e 17 56
e 17 58
e 17 59
e 17 60
e 17 64
e 17 66
e 17 67
e 17 73
e 17 74
e 17 76
e 17 78
e 17 80
e 17 81
e 17 83
e 17 85
e 17 86
e 17 90
e 17 97
e 17 100
e 17 101
e 17 103
e 17 104
e 17 107
e 17 108
e 17 110
e 17 112
e 17 113
e 17 115
e 17 116
e 17 121
e 17 124
e 17 125
e 17 128
e 17 129
e 17 135
e 17 139
e 17 140
e 17 142
e 17 143
e 17 144
e 17 146
e 17 147
e 17 148
e 17 150
e 18 21
e 18 22
e 18 23
e 18 25
e 18 28
e 18 31
e 18 36
e 18 38
e 18 41
e 18 50
e 18 54
e 18 57
e 18 62
e 18 63
e 18 64
e 18 65
e 18 70
e 18 74
e 18 75
e 18 76
e 18 77
e 18 81
e 18 83
e 18 84
e 18 85
e 18 90
e 18 93
e 18 94
e 18 95
e 18 97
e 18 99
e 18 101
e 18 102
e 18 103
e 18 111
e 18 112
e 18 117
e 18 120
e 18 122
e 18 125
e 18 127
e 18 129
e 18 140
e 18 143
e 18 144
e 18 145
e 19 21
e 19 25
e 19 26
e 19 32
e 19 33
e 19 34
e 19 35
e 19 38
e 19 40
e 19 42
e 19 44
e 19 46
e 19 47
e 19 49
e 19 51
e 19 53
e 19 56
e 19 58
e 19 59
e 19 60
e 19 63
e 19 64
e 19 66
e 19 67
e 19 71
e 19 76
e 19 77
e 19 79
e 19 81
e 19 82
e 19 84
e 19 85
e 19 94
e 19 99
e 19 100
e 19 102
e 19 103
e 19 107
e 19 113
e 19 117
e 19 123
e 19 124
e 19 125
e 19 134
e 19 136
e 19 139
e 19 141
e 19 144
e 19 145
e 19 146
e 19 147
e 19 149
e 20 21
e 20 22
e 20 24
e 20 26
e 20 27
e 20 28
e 20 32
e 20 33
e 20 35
e 20 36
e 20 39
e 20 43
e 20 46
e 20 49
e 20 53
e 20 55
e 20 57
e 20 58
e 20 60
e 20 61
e 20 63
e 20 65
e 20 66
e 20 67
e 20 68
e 20 69
e 20 70
e 20 71
e 20 72
e 20 77
e 20 79
e 20 80
e 20 82
e 20 86
e 20 87
e 20 88
e 20 90
e 20 92
e 20 93
e 20 94
e 20 95
e 20 101
e 20 102
e 20 103
e 20 109
e 20 110
e 20 111
e 20 112
e 20 114
e 20 115
e 20 117
e 20 118
e 20 119
e 20 120
e 20 122
e 20 123
e 20 125
e 20 126
e 20 128
e 20 129
e 20 132
e 20 135
e 20 136
e 20 138
e 20 139
e 20 142
e 20 147
e 21 25
e 21 26
e 21 27
e 21 30
e 21 33
e 21 34
e 21 35
e 21 36
e 21 37
e 21 38
e 21 39
e 21 40
e 21 42
e 21 45
e 21 49
e 21 52
e 21 53
e 21 54
e 21 57
e 21 58
e 21 59
e 21 62
e 21 64
e 21 68
e 21 70
e 21 76
e 21 77
e 21 78
e 21 79
e 21 80
e 21 81
e 21 89
e 21 93
e 21 94
e 21 96
e 21 97
e 21 102
e 21 107
e 21 108
e 21 110
e 21 114
e 21 117
e 21 119
e 21 121
e 21 125
e 21 126
e 21 132
e 21 145
e 21 146
e 22 23
e 22 24
e 22 26
e 22 29
e 22 30
e 22 34
e 22 38
e 22 39
e 22 40
e 22 43
e 22 45
e 22 49
e 22 55
e 22 57
e 22 58
e 22 61
e 22 62
e 22 69
e 22 73
e 22 75
e 22 78
e 22 80
e 22 84
e 22 86
e 22 88
e 22 96
e 22 98
e 22 99
e 22 102
e 22 104
e 22 105
e 22 106
e 22 112
e 22 117
e 22 121
e 22 125
e 22 129
e 22 130
e 22 131
e 22 133
e 22 134
e 22 141
e 22 142
e 22 143
e 22 144
e 22 146
e 22 148
e 22 149
e 23 25
e 23 32
e 23 35
e 23 37
e 23 40
e 23 42
e 23 44
e 23 47
e 23 48
e 23 51
e 23 52
e 23 60
e 23 62
e 23 63
e 23 64
e 23 69
e 23 71
e 23 74
e 23 75
e 23 76
e 23 78
e 23 79
e 23 82
e 23 83
e 23 84
e 23 88
e 23 97
e 23 99
e 23 100
e 23 103
e 23 105
e 23 106
e 23 107
e 23 111
e 23 113
e 23 115
e 23 116
e 23 118
e 23 119
e 23 122
e 23 126
e 23 127
e 23 128
e 23 132
e 23 134
e 23 140
e 23 143
e 23 148
e 23 149
e 23 150
e 24 27
e 24 31
e 24 33
e 24 34
e 24 35
e 24 36
e 24 40
e 24 42
e 24 43
e 24 46
e 24 50
e 24 55
e 24 56
e 24 57
e 24 59
e 24 62
e 24 64
e 24 69
e 24 70
e 24 71
e 24 72
e 24 73
e 24 74
e 24 79
e 24 82
e 24 83
e 24 87
e 24 89
e 24 90
e 24 98
e 24 101
e 24 102
e 24 103
e 24 105
e 24 106
e 24 107
e 24 111
e 24 113
e 24 114
e 24 115
e 24 116
e 24 118
e 24 120
e 24 122
e 24 123
e 24 124
e 24 127
e 24 130
e 24 133
e 24 136
e 24 137
e 24 141
e 24 143
e 24 148
e 24 150
e 25 28
e 25 30
e 25 32
e 25 33
e 25 35
e 25 39
e 25 40
e 25 41
e 25 43
e 25 44
e 25 47
e 25 49
e 25 56
e 25 62
e 25 66
e 25 70
e 25 72
e 25 74
e 25 78
e 25 79
e 25 80
e 25 81
e 25 82
e 25 84
e 25 85
e 25 88
e 25 91
e 25 93
e 25 96
e 25 103
e 25 104
e 25 107
e 25 108
e 25 117
e 25 122
e 25 123
e 25 124
e 25 125
e 25 129
e 25 130
e 25 134
e 25 137
e 25 138
e 25 140
e 25 143
e 25 144
e 25 147
e 25 148
e 25 149
e 26 27
e 26 30
e 26 33
e 26 34
e 26 36
e 26 37
e 26 45
e 26 46
e 26 51
e 26 54
e 26 59
e 26 60
e 26 63
e 26 65
e 26 66
e 26 68
e 26 70
e 26 71
e 26 76
e 26 79
e 26 81
e 26 82
e 26 83
e 26 85
e 26 86
e 26 89
e 26 90
e 26 91
e 26 93
e 26 100
e 26 103
e 26 105
e 26 109
e 26 110
e 26 117
e 26 118
e 26 119
e 26 120
e 26 121
e 26 131
e 26 132
e 26 133
e 26 138
e 26 139
e 26 143
e 26 144
e 26 146
e 26 147
e 27 29
e 27 30
e 27 32
e 27 34
e 27 37
e 27 40
e 27 44
e 27 46
e 27 49
e 27 52
e 27 53
e 27 55
e 27 56
e 27 57
e 27 59
e 27 60
e 27 65
e 27 69
e 27 70
e 27 71
e 27 72
e 27 74
e 27 75
e 27 76
e 27 79
e 27 81
e 27 82
e 27 83
e 27 86
e 27 92
e 27 93
e 27 94
e 27 97
e 27 98
e 27 99
e 27 103
e 27 105
e 27 108
e 27 112
e 27 114
e 27 117
e 27 120
e 27 122
e 27 123
e 27 127
e 27 128
e 27 129
e 27 132
e 27 133
e 27 137
e 27 143
e 28 29
e 28 33
e 28 35
e 28 36
e 28 38
e 28 40
e 28 42
e 28 44
e 28 48
e 28 49
e 28 50
e 28 52
e 28 53
e 28 57
e 28 58
e 28 61
e 28 64
e 28 67
e 28 73
e 28 74
e 28 75
e 28 78
e 28 81
e 28 89
e 28 90
e 28 92
e 28 96
e 28 97
e 28 98
e 28 100
e 28 105
e 28 107
e 28 110
e 28 113
e 28 122
e 28 124
e 28 126
e 28 127
e 28 128
e 28 129
e 28 133
e 28 136
e 28 137
e 28 141
e 28 143
e 28 149
e 29 32
e 29 33
e 29 36
e 29 39
e 29 40
e 29 43
e 29 44
e 29 47
e 29 48
e 29 50
e 29 51
e 29 52
e 29 56
e 29 57
e 29 58
e 29 59
e 29 61
e 29 62
e 29 63
e 29 65
e 29 73
e 29 77
e 29 79
e 29 80
e 29 83
e 29 85
e 29 86
e 29 89
e 29 93
e 29 99
e 29 102
e 29 104
e 29 109
e 29 111
e 29 113
e 29 117
e 29 122
e 29 123
e 29 124
e 29 128
e 29 130
e 29 132
e 29 133
e 29 134
e 29 141
e 29 143
e 29 146
e 29 147
e 29 148
e 29 149
e 29 150
e 30 36
e 30 37
e 30 39
e 30 40
e 30 41
e 30 42
e 30 48
e 30 50
e 30 51
e 30 54
e 30 57
e 30 59
e 30 60
e 30 61
e 30 64
e 30 65
e 30 67
e 30 70
e 30 73
e 30 76
e 30 79
e 30 80
e 30 81
e 30 86
e 30 87
e 30 88
e 30 89
e 30 90
e 30 92
e 30 93
e 30 94
e 30 96
e 30 98
e 30 100
e 30 103
e 30 105
e 30 106
e 30 108
e 30 110
e 30 111
e 30 113
e 30 115
e 30 117
e 30 119
e 30 120
e 30 121
e 30 122
e 30 124
e 30 126
e 30 129
e 30 133
e 30 134
e 30 138
e 30 139
e 30 149
e 31 34
e 31 37
e 31 39
e 31 41
e 31 43
e 31 46
e 31 47
e 31 49
e 31 50
e 31 53
e 31 56
e 31 57
e 31 61
e 31 62
e 31 63
e 31 64
e 31 67
e 31 70
e 31 72
e 31 76
e 31 79
e 31 83
e 31 85
e 31 87
e 31 89
e 31 91
e 31 102
e 31 104
e 31 109
e 31 111
e 31 112
e 31 113
e 31 115
e 31 117
e 31 119
e 31 122
e 31 125
e 31 128
e 31 129
e 31 135
e 31 136
e 31 137
e 31 141
e 31 142
e 31 143
e 32 34
e 32 35
e 32 36
e 32 38
e 32 40
e 32 41
e 32 42
e 32 43
e 32 45
e 32 46
e 32 51
e 32 53
e 32 57
e 32 65
e 32 66
e 32 69
e 32 71
e 32 73
e 32 75
e 32 76
e 32 81
e 32 82
e 32 85
e 32 86
e 32 95
e 32 97
e 32 100
e 32 105
e 32 106
e 32 108
e 32 110
e 32 114
e 32 116
e 32 118
e 32 119
e 32 121
e 32 125
e 32 128
e 32 129
e 32 130
e 32 136
e 32 140
e 32 143
e 32 144
e 32 147
e 32 148
e 32 149
e 33 37
e 33 42
e 33 43
e 33 44
e 33 46
e 33 48
e 33 50
e 33 51
e 33 55
e 33 56
e 33 59
e 33 64
e 33 65
e 33 70
e 33 71
e 33 76
e 33 78
e 33 79
e 33 80
e 33 81
e 33 82
e 33 83
e 33 84
e 33 87
e 33 89
e 33 90
e 33 95
e 33 97
e 33 101
e 33 102
e 33 103
e 33 106
e 33 112
e 33 114
e 33 115
e 33 117
e 33 120
e 33 131
e 33 133
e 33 134
e 33 136
e 33 137
e 33 139
e 33 140
e 33 141
e 33 143
e 33 144
e 33 146
e 33 148
e 33 149
e 34 35
e 34 37
e 34 38
e 34 43
e 34 45
e 34 47
e 34 49
e 34 51
e 34 52
e 34 53
e 34 54
e 34 56
e 34 63
e 34 66
e 34 70
e 34 71
e 34 77
e 34 81
e 34 83
e 34 84
e 34 85
e 34 86
e 34 89
e 34 90
e 34 93
e 34 95
e 34 97
e 34 106
e 34 107
e 34 109
e 34 112
e 34 113
e 34 114
e 34 115
e 34 117
e 34 120
e 34 121
e 34 123
e 34 124
e 34 128
e 34 132
e 34 135
e 34 140
e 34 141
e 34 143
e 34 144
e 34 146
e 34 150
e 35 37
e 35 38
e 35 40
e 35 42
e 35 43
e 35 48
e 35 51
e 35 52
e 35 57
e 35 59
e 35 61
e 35 69
e 35 72
e 35 73
e 35 74
e 35 75
e 35 78
e 35 80
e 35 85
e 35 94
e 35 100
e 35 101
e 35 110
e 35 111
e 35 112
e 35 113
e 35 114
e 35 118
e 35 120
e 35 122
e 35 123
e 35 124
e 35 130
e 35 131
e 35 132
e 35 135
e 35 136
e 35 137
e 35 138
e 35 139
e 35 140
e 35 145
e 35 147
e 35 150
e 36 37
e 36 38
e 36 40
e 36 41
e 36 43
e 36 45
e 36 49
e 36 50
e 36 52
e 36 55
e 36 56
e 36 59
e 36 62
e 36 65
e 36 66
e 36 67
e 36 69
e 36 71
e 36 73
e 36 77
e 36 78
e 36 79
e 36 80
e 36 81
e 36 85
e 36 90
e 36 91
e 36 94
e 36 97
e 36 115
e 36 116
e 36 119
e 36 122
e 36 123
e 36 124
e 36 125
e 36 128
e 36 129
e 36 133
e 36 134
e 36 140
e 36 144
e 36 146
e 36 148
e 37 42
e 37 45
e 37 51
e 37 52
e 37 57
e 37 59
e 37 61
e 37 63
e 37 70
e 37 73
e 37 75
e 37 77
e 37 78
e 37 79
e 37 82
e 37 83
e 37 88
e 37 91
e 37 96
e 37 97
e 37 100
e 37 109
e 37 115
e 37 116
e 37 126
e 37 127
e 37 129
e 37 130
e 37 133
e 37 135
e 37 136
e 37 137
e 37 138
e 37 142
e 37 144
e 37 145
e 37 147
e 37 149
e 38 41
e 38 45
e 38 53
e 38 54
e 38 58
e 38 60
e 38 62
e 38 71
e 38 74
e 38 76
e 38 77
e 38 79
e 38 87
e 38 89
e 38 90
e 38 92
e 38 97
e 38 100
e 38 102
e 38 113
e 38 114
e 38 119
e 38 120
e 38 121
e 38 123
e 38 125
e 38 128
e 38 130
e 38 132
e 38 133
e 38 135
e 38 137
e 38 141
e 38 148
e 38 149
e 39 40
e 39 41
e 39 44
e 39 45
e 39 49
e 39 51
e 39 53
e 39 55
e 39 56
e 39 57
e 39 58
e 39 59
e 39 60
e 39 66
e 39 68
e 39 69
e 39 70
e 39 72
e 39 73
e 39 82
e 39 93
e 39 94
e 39 95
e 39 96
e 39 99
e 39 100
e 39 101
e 39 102
e 39 103
e 39 104
e 39 105
e 39 109
e 39 110
e 39 114
e 39 117
e 39 120
e 39 121
e 39 122
e 39 124
e 39 128
e 39 129
e 39 130
e 39 131
e 39 133
e 39 134
e 39 135
e 39 141
e 39 142
e 39 143
e 39 144
e 39 145
e 39 147
e 39 148
e 40 42
e 40 43
e 40 48
e 40 51
e 40 54
e 40 57
e 40 61
e 40 62
e 40 63
e 40 64
e 40 65
e 40 66
e 40 67
e 40 69
e 40 70
e 40 75
e 40 77
e 40 83
e 40 85
e 40 87
e 40 89
e 40 91
e 40 92
e 40 98
e 40 100
e 40 101
e 40 102
e 40 103
e 40 105
e 40 107
e 40 110
e 40 115
e 40 116
e 40 118
e 40 119
e 40 120
e 40 122
e 40 124
e 40 128
e 40 129
e 40 130
e 40 131
e 40 132
e 40 134
e 40 145
e 40 146
e 40 147
e 40 149
e 41 43
e 41 50
e 41 54
e 41 60
e 41 62
e 41 66
e 41 68
e 41 69
e 41 72
e 41 75
e 41 76
e 41 78
e 41 79
e 41 81
e 41 82
e 41 88
e 41 89
e 41 90
e 41 91
e 41 92
e 41 93
e 41 94
e 41 96
e 41 99
e 41 101
e 41 106
e 41 108
e 41 110
e 41 111
e 41 112
e 41 117
e 41 119
e 41 121
e 41 123
e 41 124
e 41 126
e 41 130
e 41 133
e 41 134
e 41 135
e 41 138
e 41 140
e 41 141
e 41 143
e 41 149
e 42 43
e 42 46
e 42 47
e 42 50
e 42 51
e 42 52
e 42 53
e 42 56
e 42 59
e 42 60
e 42 61
e 42 63
e 42 65
e 42 66
e 42 68
e 42 72
e 42 74
e 42 76
e 42 77
e 42 86
e 42 91
e 42 95
e 42 97
e 42 99
e 42 100
e 42 101
e 42 103
e 42 105
e 42 109
e 42 110
e 42 111
e 42 112
e 42 115
e 42 118
e 42 120
e 42 121
e 42 122
e 42 124
e 42 130
e 42 136
e 42 142
e 42 147
e 42 149
e 42 150
e 43 44
e 43 46
e 43 47
e 43 48
e 43 49
e 43 52
e 43 56
e 43 58
e 43 59
e 43 62
e 43 63
e 43 64
e 43 65
e 43 79
e 43 84
e 43 85
e 43 86
e 43 91
e 43 96
e 43 101
e 43 104
e 43 106
e 43 109
e 43 116
e 43 117
e 43 118
e 43 125
e 43 126
e 43 128
e 43 129
e 43 130
e 43 131
e 43 132
e 43 138
e 43 140
e 43 142
e 43 146
e 43 147
e 43 148
e 43 149
e 43 150
e 44 47
e 44 48
e 44 54
e 44 57
e 44 61
e 44 63
e 44 65
e 44 67
e 44 69
e 44 70
e 44 71
e 44 74
e 44 75
e 44 79
e 44 80
e 44 83
e 44 85
e 44 87
e 44 88
e 44 89
e 44 92
e 44 93
e 44 95
e 44 97
e 44 99
e 44 101
e 44 103
e 44 104
e 44 105
e 44 106
e 44 107
e 44 111
e 44 112
e 44 113
e 44 116
e 44 117
e 44 118
e 44 120
e 44 124
e 44 127
e 44 131
e 44 132
e 44 140
e 44 141
e 44 144
e 44 146
e 44 147
e 45 52
e 45 53
e 45 54
e 45 57
e 45 63
e 45 68
e 45 69
e 45 73
e 45 75
e 45 76
e 45 79
e 45 81
e 45 83
e 45 84
e 45 94
e 45 96
e 45 97
e 45 102
e 45 106
e 45 109
e 45 110
e 45 112
e 45 115
e 45 116
e 45 119
e 45 120
e 45 130
e 45 133
e 45 134
e 45 136
e 45 138
e 45 140
e 45 141
e 45 142
e 45 146
e 45 147
e 46 48
e 46 50
e 46 54
e 46 57
e 46 59
e 46 61
e 46 62
e 46 63
e 46 64
e 46 70
e 46 72
e 46 73
e 46 78
e 46 80
e 46 82
e 46 85
e 46 88
e 46 90
e 46 91
e 46 92
e 46 93
e 46 96
e 46 98
e 46 99
e 46 108
e 46 114
e 46 116
e 46 117
e 46 118
e 46 121
e 46 125
e 46 126
e 46 127
e 46 129
e 46 136
e 46 137
e 46 143
e 46 145
e 46 147
e 47 48
e 47 51
e 47 54
e 47 55
e 47 61
e 47 62
e 47 72
e 47 74
e 47 75
e 47 76
e 47 81
e 47 84
e 47 85
e 47 88
e 47 100
e 47 102
e 47 105
e 47 106
e 47 110
e 47 111
e 47 114
e 47 118
e 47 121
e 47 122
e 47 125
e 47 127
e 47 131
e 47 134
e 47 139
e 47 140
e 47 149
e 48 49
e 48 50
e 48 52
e 48 57
e 48 58
e 48 65
e 48 67
e 48 69
e 48 71
e 48 73
e 48 74
e 48 75
e 48 76
e 48 79
e 48 81
e 48 85
e 48 89
e 48 94
e 48 95
e 48 98
e 48 99
e 48 100
e 48 106
e 48 112
e 48 113
e 48 114
e 48 116
e 48 119
e 48 122
e 48 126
e 48 130
e 48 132
e 48 137
e 48 139
e 48 141
e 48 142
e 48 149
e 48 150
e 49 54
e 49 56
e 49 57
e 49 58
e 49 63
e 49 66
e 49 67
e 49 68
e 49 69
e 49 73
e 49 76
e 49 77
e 49 80
e 49 83
e 49 87
e 49 90
e 49 93
e 49 98
e 49 104
e 49 105
e 49 106
e 49 109
e 49 111
e 49 112
e 49 113
e 49 116
e 49 117
e 49 119
e 49 121
e 49 122
e 49 125
e 49 128
e 49 133
e 49 139
e 49 141
e 49 142
e 49 143
e 49 149
e 50 51
e 50 52
e 50 56
e 50 60
e 50 61
e 50 62
e 50 64
e 50 65
e 50 67
e 50 68
e 50 69
e 50 71
e 50 74
e 50 75
e 50 76
e 50 80
e 50 82
e 50 85
e 50 86
e 50 87
e 50 88
e 50 92
e 50 95
e 50 99
e 50 100
e 50 105
e 50 110
e 50 111
e 50 115
e 50 118
e 50 122
e 50 124
e 50 126
e 50 127
e 50 128
e 50 130
e 50 131
e 50 139
e 50 142
e 50 144
e 50 145
e 50 146
e 50 147
e 51 54
e 51 55
e 51 62
e 51 63
e 51 71
e 51 72
e 51 75
e 51 77
e 51 79
e 51 85
e 51 89
e 51 90
e 51 92
e 51 93
e 51 94
e 51 96
e 51 98
e 51 99
e 51 105
e 51 106
e 51 107
e 51 110
e 51 112
e 51 114
e 51 118
e 51 120
e 51 123
e 51 126
e 51 127
e 51 130
e 51 132
e 51 134
e 51 135
e 51 140
e 51 141
e 51 147
e 51 148
e 51 150
e 52 56
e 52 60
e 52 63
e 52 72
e 52 73
e 52 75
e 52 78
e 52 82
e 52 85
e 52 87
e 52 88
e 52 92
e 52 95
e 52 96
e 52 97
e 52 99
e 52 102
e 52 103
e 52 104
e 52 105
e 52 106
e 52 112
e 52 113
e 52 115
e 52 121
e 52 122
e 52 125
e 52 127
e 52 128
e 52 133
e 52 134
e 52 139
e 52 144
e 52 146
e 52 148
e 52 149
e 52 150
e 53 55
e 53 56
e 53 57
e 53 58
e 53 59
e 53 60
e 53 65
e 53 66
e 53 67
e 53 68
e 53 70
e 53 71
e 53 72
e 53 79
e 53 81
e 53 82
e 53 83
e 53 89
e 53 91
e 53 96
e 53 97
e 53 98
e 53 99
e 53 103
e 53 104
e 53 106
e 53 109
e 53 114
e 53 115
e 53 116
e 53 117
e 53 120
e 53 122
e 53 123
e 53 130
e 53 135
e 53 138
e 53 139
e 53 142
e 53 144
e 53 146
e 53 147
e 53 150
e 54 56
e 54 57
e 54 62
e 54 64
e 54 65
e 54 68
e 54 69
e 54 71
e 54 72
e 54 74
e 54 75
e 54 76
e 54 80
e 54 84
e 54 90
e 54 92
e 54 93
e 54 95
e 54 100
e 54 101
e 54 102
e 54 105
e 54 106
e 54 109
e 54 110
e 54 120
e 54 124
e 54 125
e 54 126
e 54 129
e 54 131
e 54 133
e 54 139
e 54 141
e 54 142
e 54 144
e 54 146
e 54 147
e 54 150
e 55 56
e 55 57
e 55 64
e 55 65
e 55 67
e 55 68
e 55 71
e 55 73
e 55 74
e 55 76
e 55 82
e 55 83
e 55 86
e 55 88
e 55 90
e 55 91
e 55 93
e 55 94
e 55 95
e 55 96
e 55 99
e 55 100
e 55 101
e 55 102
e 55 107
e 55 108
e 55 110
e 55 111
e 55 121
e 55 122
e 55 124
e 55 125
e 55 128
e 55 129
e 55 132
e 55 134
e 55 136
e 55 140
e 55 141
e 55 142
e 55 143
e 55 145
e 55 150
e 56 58
e 56 62
e 56 64
e 56 65
e 56 67
e 56 68
e 56 69
e 56 70
e 56 71
e 56 73
e 56 75
e 56 77
e 56 78
e 56 79
e 56 82
e 56 83
e 56 84
e 56 86
e 56 88
e 56 89
e 56 90
e 56 92
e 56 93
e 56 94
e 56 96
e 56 101
e 56 103
e 56 106
e 56 110
e 56 113
e 56 117
e 56 119
e 56 123
e 56 125
e 56 127
e 56 129
e 56 132
e 56 133
e 56 134
e 56 137
e 56 138
e 56 143
e 56 145
e 56 146
e 56 148
e 56 149
e 56 150
e 57 58
e 57 59
e 57 60
e 57 61
e 57 62
e 57 66
e 57 67
e 57 69
e 57 70
e 57 71
e 57 76
e 57 78
e 57 82
e 57 84
e 57 86
e 57 91
e 57 92
e 57 94
e 57 96
e 57 107
e 57 112
e 57 114
e 57 116
e 57 117
e 57 119
e 57 120
e 57 126
e 57 127
e 57 129
e 57 131
e 57 135
e 57 137
e 57 138
e 57 139
e 57 142
e 57 145
e 57 147
e 57 150
e 58 59
e 58 60
e 58 61
e 58 62
e 58 64
e 58 65
e 58 66
e 58 73
e 58 75
e 58 77
e 58 82
e 58 84
e 58 90
e 58 92
e 58 94
e 58 98
e 58 100
e 58 102
e 58 113
e 58 114
e 58 115
e 58 117
e 58 127
e 58 132
e 58 136
e 58 138
e 58 144
e 58 146
e 58 149
e 59 60
e 59 61
e 59 62
e 59 63
e 59 65
e 59 66
e 59 68
e 59 69
e 59 71
e 59 73
e 59 74
e 59 79
e 59 80
e 59 81
e 59 82
e 59 84
e 59 85
e 59 86
e 59 88
e 59 90
e 59 92
e 59 93
e 59 95
e 59 96
e 59 99
e 59 100
e 59 101
e 59 104
e 59 110
e 59 111
e 59 116
e 59 120
e 59 125
e 59 127
e 59 129
e 59 131
e 59 135
e 59 138
e 59 140
e 59 144
e 59 146
e 60 61
e 60 62
e 60 64
e 60 66
e 60 68
e 60 70
e 60 74
e 60 76
e 60 78
e 60 79
e 60 81
e 60 84
e 60 86
e 60 91
e 60 93
e 60 94
e 60 95
e 60 100
e 60 101
e 60 102
e 60 104
e 60 105
e 60 107
e 60 114
e 60 115
e 60 119
e 60 123
e 60 124
e 60 127
e 60 128
e 60 129
e 60 132
e 60 133
e 60 134
e 60 136
e 60 137
e 60 138
e 60 141
e 60 142
e 60 143
e 60 144
e 60 145
e 60 146
e 60 147
e 60 148
e 61 63
e 61 64
e 61 65
e 61 71
e 61 72
e 61 77
e 61 80
e 61 82
e 61 86
e 61 90
e 61 92
e 61 93
e 61 94
e 61 98
e 61 101
e 61 102
e 61 104
e 61 107
e 61 108
e 61 109
e 61 110
e 61 111
e 61 113
e 61 114
e 61 116
e 61 132
e 61 134
e 61 139
e 61 142
e 61 143
e 61 147
e 61 149
e 62 64
e 62 66
e 62 71
e 62 75
e 62 82
e 62 88
e 62 89
e 62 90
e 62 92
e 62 93
e 62 95
e 62 96
e 62 98
e 62 102
e 62 103
e 62 104
e 62 109
e 62 118
e 62 127
e 62 128
e 62 129
e 62 132
e 62 133
e 62 134
e 62 135
e 62 140
e 62 145
e 62 147
e 62 148
e 62 149
e 63 64
e 63 65
e 63 68
e 63 70
e 63 71
e 63 73
e 63 77
e 63 78
e 63 80
e 63 81
e 63 85
e 63 87
e 63 89
e 63 92
e 63 94
e 63 98
e 63 99
e 63 100
e 63 102
e 63 103
e 63 104
e 63 105
e 63 107
e 63 112
e 63 113
e 63 114
e 63 117
e 63 119
e 63 122
e 63 129
e 63 130
e 63 132
e 63 134
e 63 136
e 63 140
e 63 143
e 63 144
e 63 145
e 63 146
e 63 148
e 63 149
e 63 150
e 64 65
e 64 75
e 64 77
e 64 78
e 64 79
e 64 83
e 64 86
e 64 93
e 64 96
e 64 98
e 64 100
e 64 104
e 64 105
e 64 106
e 64 107
e 64 109
e 64 110
e 64 113
e 64 116
e 64 117
e 64 119
e 64 121
e 64 127
e 64 128
e 64 129
e 64 130
e 64 133
e 64 135
e 64 136
e 64 141
e 64 144
e 64 149
e 65 67
e 65 69
e 65 70
e 65 72
e 65 73
e 65 79
e 65 80
e 65 81
e 65 83
e 65 87
e 65 89
e 65 91
e 65 93
e 65 95
e 65 100
e 65 101
e 65 103
e 65 108
e 65 112
e 65 118
e 65 120
e 65 124
e 65 125
e 65 128
e 65 130
e 65 132
e 65 133
e 65 135
e 65 138
e 65 140
e 65 141
e 65 142
e 65 143
e 65 144
e 65 148
e 65 149
e 65 150
e 66 67
e 66 71
e 66 73
e 66 74
e 66 76
e 66 77
e 66 81
e 66 82
e 66 88
e 66 90
e 66 93
e 66 94
e 66 96
e 66 100
e 66 103
e 66 106
e 66 108
e 66 111
e 66 113
e 66 114
e 66 116
e 66 118
e 66 119
e 66 120
e 66 124
e 66 126
e 66 128
e 66 132
e 66 135
e 66 136
e 66 137
e 66 138
e 66 139
e 66 142
e 66 145
e 66 146
e 66 147
e 67 70
e 67 72
e 67 74
e 67 76
e 67 80
e 67 85
e 67 86
e 67 88
e 67 90
e 67 102
e 67 103
e 67 109
e 67 112
e 67 113
e 67 115
e 67 118
e 67 119
e 67 123
e 67 124
e 67 126
e 67 127
e 67 129
e 67 133
e 67 137
e 67 138
e 67 139
e 67 142
e 67 144
e 67 148
e 68 69
e 68 71
e 68 72
e 68 74
e 68 75
e 68 78
e 68 79
e 68 80
e 68 83
e 68 87
e 68 88
e 68 89
e 68 92
e 68 93
e 68 95
e 68 96
e 68 101
e 68 102
e 68 103
e 68 104
e 68 110
e 68 115
e 68 116
e 68 117
e 68 118
e 68 123
e 68 125
e 68 127
e 68 130
e 68 137
e 68 141
e 68 142
e 68 143
e 68 144
e 68 145
e 68 148
e 68 149
e 68 150
e 69 71
e 69 76
e 69 77
e 69 78
e 69 82
e 69 83
e 69 84
e 69 86
e 69 87
e 69 94
e 69 95
e 69 96
e 69 98
e 69 101
e 69 107
e 69 108
e 69 115
e 69 117
e 69 118
e 69 120
e 69 121
e 69 122
e 69 123
e 69 128
e 69 134
e 69 136
e 69 138
e 69 142
e 69 146
e 70 71
e 70 72
e 70 73
e 70 74
e 70 79
e 70 84
e 70 90
e 70 92
e 70 93
e 70 97
e 70 98
e 70 100
e 70 101
e 70 105
e 70 107
e 70 115
e 70 120
e 70 123
e 70 124
e 70 125
e 70 126
e 70 128
e 70 130
e 70 132
e 70 133
e 70 137
e 70 141
e 70 150
e 71 73
e 71 75
e 71 81
e 71 83
e 71 85
e 71 87
e 71 89
e 71 96
e 71 97
e 71 100
e 71 103
e 71 106
e 71 115
e 71 116
e 71 118
e 71 120
e 71 121
e 71 122
e 71 123
e 71 124
e 71 125
e 71 126
e 71 128
e 71 129
e 71 131
e 71 132
e 71 133
e 71 135
e 71 136
e 71 140
e 71 149
e 72 76
e 72 83
e 72 84
e 72 89
e 72 90
e 72 91
e 72 93
e 72 94
e 72 95
e 72 97
e 72 98
e 72 104
e 72 105
e 72 106
e 72 107
e 72 108
e 72 113
e 72 116
e 72 118
e 72 120
e 72 121
e 72 129
e 72 130
e 72 131
e 72 133
e 72 136
e 72 139
e 72 141
e 72 144
e 72 145
e 72 146
e 72 147
e 72 150
e 73 76
e 73 78
e 73 79
e 73 81
e 73 82
e 73 83
e 73 86
e 73 87
e 73 89
e 73 90
e 73 91
e 73 92
e 73 93
e 73 95
e 73 98
e 73 99
e 73 101
e 73 104
e 73 107
e 73 110
e 73 113
e 73 116
e 73 117
e 73 118
e 73 119
e 73 122
e 73 128
e 73 129
e 73 132
e 73 133
e 73 139
e 73 142
e 73 145
e 73 149
e 73 150
e 74 76
e 74 80
e 74 83
e 74 88
e 74 90
e 74 93
e 74 94
e 74 102
e 74 108
e 74 112
e 74 113
e 74 114
e 74 120
e 74 122
e 74 123
e 74 128
e 74 133
e 74 135
e 74 136
e 74 139
e 74 140
e 74 142
e 74 143
e 74 144
e 74 146
e 74 148
e 74 150
e 75 81
e 75 84
e 75 88
e 75 90
e 75 91
e 75 95
e 75 97
e 75 98
e 75 104
e 75 105
e 75 108
e 75 109
e 75 110
e 75 116
e 75 117
e 75 118
e 75 124
e 75 126
e 75 136
e 75 141
e 75 142
e 75 143
e 75 145
e 75 146
e 75 148
e 75 149
e 76 78
e 76 81
e 76 82
e 76 85
e 76 86
e 76 87
e 76 89
e 76 92
e 76 93
e 76 96
e 76 103
e 76 105
e 76 111
e 76 114
e 76 115
e 76 116
e 76 123
e 76 125
e 76 130
e 76 131
e 76 133
e 76 138
e 76 140
e 76 145
e 76 147
e 76 149
e 77 79
e 77 82
e 77 86
e 77 87
e 77 92
e 77 100
e 77 101
e 77 104
e 77 106
e 77 108
e 77 109
e 77 110
e 77 111
e 77 113
e 77 117
e 77 119
e 77 123
e 77 126
e 77 131
e 77 134
e 77 137
e 77 138
e 77 139
e 77 144
e 77 146
e 77 149
e 78 79
e 78 88
e 78 91
e 78 95
e 78 99
e 78 100
e 78 101
e 78 103
e 78 108
e 78 109
e 78 110
e 78 111
e 78 112
e 78 113
e 78 116
e 78 118
e 78 120
e 78 121
e 78 122
e 78 123
e 78 130
e 78 133
e 78 136
e 78 140
e 78 143
e 78 146
e 78 147
e 78 149
e 79 80
e 79 81
e 79 82
e 79 83
e 79 88
e 79 91
e 79 94
e 79 95
e 79 98
e 79 101
e 79 102
e 79 103
e 79 104
e 79 107
e 79 108
e 79 109
e 79 110
e 79 111
e 79 113
e 79 116
e 79 117
e 79 119
e 79 122
e 79 127
e 79 134
e 79 135
e 79 138
e 79 143
e 79 148
e 80 81
e 80 84
e 80 85
e 80 87
e 80 88
e 80 93
e 80 94
e 80 96
e 80 98
e 80 100
e 80 104
e 80 107
e 80 110
e 80 112
e 80 114
e 80 117
e 80 119
e 80 120
e 80 122
e 80 124
e 80 130
e 80 131
e 80 132
e 80 134
e 80 140
e 80 143
e 80 145
e 80 148
e 80 149
e 80 150
e 81 83
e 81 88
e 81 89
e 81 90
e 81 94
e 81 95
e 81 96
e 81 101
e 81 105
e 81 107
e 81 109
e 81 116
e 81 118
e 81 119
e 81 120
e 81 122
e 81 125
e 81 126
e 81 129
e 81 131
e 81 141
e 81 145
e 81 147
e 81 148
e 82 90
e 82 93
e 82 97
e 82 99
e 82 101
e 82 102
e 82 105
e 82 106
e 82 107
e 82 108
e 82 109
e 82 111
e 82 112
e 82 114
e 82 115
e 82 117
e 82 118
e 82 122
e 82 124
e 82 125
e 82 126
e 82 130
e 82 131
e 82 133
e 82 136
e 82 145
e 82 146
e 82 149
e 82 150
e 83 86
e 83 88
e 83 91
e 83 94
e 83 96
e 83 97
e 83 100
e 83 101
e 83 104
e 83 106
e 83 107
e 83 116
e 83 117
e 83 122
e 83 123
e 83 126
e 83 129
e 83 130
e 83 135
e 83 137
e 83 138
e 83 139
e 83 145
e 83 147
e 83 148
e 84 86
e 84 89
e 84 90
e 84 92
e 84 105
e 84 107
e 84 108
e 84 110
e 84 112
e 84 114
e 84 116
e 84 120
e 84 122
e 84 127
e 84 130
e 84 132
e 84 138
e 84 145
e 84 146
e 84 147
e 84 149
e 85 88
e 85 90
e 85 93
e 85 94
e 85 96
e 85 103
e 85 104
e 85 106
e 85 107
e 85 108
e 85 109
e 85 112
e 85 115
e 85 118
e 85 119
e 85 120
e 85 124
e 85 125
e 85 127
e 85 128
e 85 135
e 85 139
e 85 145
e 85 147
e 85 148
e 85 149
e 86 88
e 86 89
e 86 90
e 86 91
e 86 96
e 86 102
e 86 104
e 86 105
e 86 110
e 86 111
e 86 112
e 86 116
e 86 120
e 86 121
e 86 125
e 86 130
e 86 131
e 86 132
e 86 134
e 86 137
e 86 139
e 86 140
e 86 145
e 87 88
e 87 90
e 87 93
e 87 96
e 87 98
e 87 99
e 87 100
e 87 101
e 87 103
e 87 112
e 87 114
e 87 123
e 87 125
e 87 128
e 87 130
e 87 131
e 87 134
e 87 141
e 87 145
e 88 89
e 88 91
e 88 100
e 88 101
e 88 111
e 88 112
e 88 113
e 88 114
e 88 115
e 88 117
e 88 118
e 88 119
e 88 120
e 88 127
e 88 129
e 88 130
e 88 131
e 88 132
e 88 135
e 88 141
e 88 142
e 88 145
e 88 148
e 88 149
e 89 94
e 89 95
e 89 97
e 89 98
e 89 101
e 89 102
e 89 104
e 89 105
e 89 107
e 89 108
e 89 109
e 89 112
e 89 114
e 89 121
e 89 125
e 89 129
e 89 130
e 89 132
e 89 133
e 89 134
e 89 139
e 89 140
e 89 143
e 89 148
e 90 91
e 90 94
e 90 102
e 90 103
e 90 108
e 90 109
e 90 111
e 90 113
e 90 117
e 90 122
e 90 123
e 90 125
e 90 126
e 90 127
e 90 128
e 90 129
e 90 131
e 90 133
e 90 134
e 90 135
e 90 136
e 90 138
e 90 140
e 90 144
e 90 146
e 90 147
e 90 148
e 90 150
e 91 94
e 91 101
e 91 104
e 91 105
e 91 106
e 91 107
e 91 110
e 91 111
e 91 112
e 91 116
e 91 117
e 91 118
e 91 119
e 91 120
e 91 125
e 91 131
e 91 136
e 91 138
e 91 139
e 91 140
e 91 145
e 91 147
e 91 149
e 92 95
e 92 100
e 92 102
e 92 103
e 92 105
e 92 107
e 92 110
e 92 113
e 92 117
e 92 119
e 92 122
e 92 125
e 92 126
e 92 128
e 92 131
e 92 134
e 92 135
e 92 141
e 92 142
e 92 145
e 92 147
e 92 149
e 92 150
e 93 94
e 93 95
e 93 97
e 93 106
e 93 111
e 93 112
e 93 113
e 93 114
e 93 117
e 93 119
e 93 120
e 93 128
e 93 134
e 93 135
e 93 136
e 93 137
e 93 139
e 93 143
e 93 144
e 93 145
e 93 146
e 93 147
e 93 148
e 93 149
e 94 95
e 94 96
e 94 100
e 94 101
e 94 102
e 94 106
e 94 108
e 94 111
e 94 113
e 94 116
e 94 119
e 94 120
e 94 121
e 94 122
e 94 127
e 94 128
e 94 130
e 94 131
e 94 133
e 94 136
e 94 139
e 94 141
e 94 143
e 94 144
e 95 98
e 95 99
e 95 100
e 95 107
e 95 109
e 95 113
e 95 114
e 95 117
e 95 121
e 95 122
e 95 124
e 95 127
e 95 131
e 95 133
e 95 134
e 95 135
e 95 137
e 95 139
e 95 140
e 95 145
e 95 146
e 95 147
e 95 148
e 95 150
e 96 107
e 96 109
e 96 111
e 96 112
e 96 113
e 96 114
e 96 116
e 96 118
e 96 122
e 96 127
e 96 129
e 96 135
e 96 137
e 96 139
e 96 141
e 96 142
e 96 144
e 96 148
e 97 102
e 97 104
e 97 111
e 97 115
e 97 118
e 97 121
e 97 122
e 97 123
e 97 128
e 97 130
e 97 131
e 97 132
e 97 135
e 97 136
e 97 137
e 97 144
e 97 146
e 97 147
e 98 108
e 98 110
e 98 111
e 98 116
e 98 117
e 98 119
e 98 125
e 98 130
e 98 131
e 98 133
e 98 138
e 98 139
e 98 140
e 98 145
e 98 147
e 99 102
e 99 106
e 99 107
e 99 109
e 99 114
e 99 116
e 99 119
e 99 124
e 99 125
e 99 126
e 99 127
e 99 128
e 99 129
e 99 130
e 99 140
e 99 141
e 99 144
e 99 148
e 100 101
e 100 105
e 100 107
e 100 109
e 100 111
e 100 115
e 100 117
e 100 119
e 100 120
e 100 121
e 100 122
e 100 123
e 100 124
e 100 125
e 100 129
e 100 130
e 100 132
e 100 136
e 100 139
e 100 141
e 100 142
e 100 144
e 100 148
e 100 149
e 101 102
e 101 104
e 101 111
e 101 116
e 101 117
e 101 118
e 101 120
e 101 121
e 101 122
e 101 123
e 101 125
e 101 128
e 101 129
e 101 131
e 101 132
e 101 136
e 101 137
e 101 140
e 101 142
e 101 144
e 101 148
e 101 150
e 102 105
e 102 106
e 102 108
e 102 110
e 102 111
e 102 112
e 102 116
e 102 120
e 102 122
e 102 124
e 102 129
e 102 139
e 102 140
e 102 148
e 103 105
e 103 106
e 103 112
e 103 114
e 103 119
e 103 120
e 103 121
e 103 124
e 103 125
e 103 126
e 103 128
e 103 129
e 103 132
e 103 133
e 103 135
e 103 143
e 103 150
e 104 117
e 104 123
e 104 126
e 104 127
e 104 128
e 104 132
e 104 135
e 104 139
e 104 140
e 104 141
e 104 143
e 104 146
e 104 150
e 105 106
e 105 108
e 105 114
e 105 117
e 105 119
e 105 120
e 105 125
e 105 126
e 105 130
e 105 132
e 105 135
e 105 139
e 105 140
e 105 149
e 106 111
e 106 113
e 106 117
e 106 118
e 106 122
e 106 125
e 106 129
e 106 130
e 106 137
e 106 144
e 106 146
e 106 147
e 106 148
e 106 150
e 107 109
e 107 110
e 107 112
e 107 125
e 107 128
e 107 130
e 107 131
e 107 132
e 107 133
e 107 135
e 107 137
e 107 141
e 107 145
e 107 146
e 107 148
e 107 149
e 108 113
e 108 114
e 108 119
e 108 120
e 108 121
e 108 125
e 108 126
e 108 127
e 108 129
e 108 141
e 108 142
e 108 145
e 108 147
e 109 110
e 109 111
e 109 112
e 109 117
e 109 120
e 109 122
e 109 126
e 109 129
e 109 132
e 109 136
e 109 138
e 109 139
e 109 142
e 109 144
e 109 145
e 109 148
e 109 150
e 110 112
e 110 113
e 110 114
e 110 115
e 110 117
e 110 118
e 110 121
e 110 125
e 110 126
e 110 128
e 110 132
e 110 133
e 110 136
e 110 137
e 110 141
e 110 144
e 110 146
e 110 148
e 110 150
e 111 112
e 111 113
e 111 118
e 111 119
e 111 120
e 111 122
e 111 123
e 111 125
e 111 126
e 111 128
e 111 130
e 111 135
e 111 138
e 111 142
e 111 145
e 111 146
e 112 113
e 112 114
e 112 115
e 112 116
e 112 118
e 112 119
e 112 123
e 112 126
e 112 127
e 112 131
e 112 134
e 112 135
e 112 139
e 112 140
e 112 144
e 112 147
e 112 148
e 113 117
e 113 121
e 113 125
e 113 126
e 113 134
e 113 135
e 113 136
e 113 137
e 113 138
e 113 140
e 113 143
e 113 145
e 113 150
e 114 115
e 114 118
e 114 120
e 114 121
e 114 122
e 114 124
e 114 125
e 114 130
e 114 131
e 114 132
e 114 137
e 114 138
e 114 139
e 114 140
e 114 143
e 114 144
e 114 147
e 114 148
e 115 116
e 115 117
e 115 126
e 115 130
e 115 131
e 115 133
e 115 134
e 115 137
e 115 142
e 115 143
e 115 146
e 115 147
e 115 148
e 115 150
e 116 117
e 116 118
e 116 124
e 116 125
e 116 134
e 116 135
e 116 136
e 116 142
e 116 148
e 117 124
e 117 129
e 117 130
e 117 131
e 117 132
e 117 133
e 117 136
e 117 139
e 117 141
e 117 142
e 117 143
e 117 144
e 117 148
e 117 149
e 117 150
e 118 120
e 118 122
e 118 124
e 118 126
e 118 127
e 118 128
e 118 135
e 118 136
e 118 139
e 118 142
e 118 145
e 118 148
e 119 121
e 119 125
e 119 130
e 119 131
e 119 133
e 119 134
e 119 135
e 119 137
e 119 139
e 119 140
e 119 141
e 120 121
e 120 122
e 120 128
e 120 129
e 120 139
e 120 140
e 120 143
e 120 148
e 120 150
e 121 122
e 121 124
e 121 125
e 121 128
e 121 129
e 121 130
e 121 142
e 121 143
e 121 144
e 121 145
e 121 146
e 122 123
e 122 124
e 122 125
e 122 127
e 122 128
e 122 134
e 122 135
e 122 137
e 122 138
e 122 139
e 122 143
e 122 145
e 122 147
e 122 149
e 123 127
e 123 129
e 123 132
e 123 135
e 123 137
e 123 138
e 123 139
e 123 142
e 123 146
e 123 149
e 124 125
e 124 130
e 124 132
e 124 134
e 124 135
e 124 137
e 124 138
e 124 139
e 124 140
e 124 143
e 124 146
e 124 149
e 125 129
e 125 130
e 125 135
e 125 137
e 125 138
e 125 139
e 125 140
e 125 144
e 125 145
e 125 146
e 125 148
e 126 127
e 126 131
e 126 137
e 126 139
e 126 140
e 126 141
e 126 144
e 126 146
e 126 147
e 126 149
e 126 150
e 127 131
e 127 133
e 127 134
e 127 135
e 127 136
e 127 137
e 127 138
e 127 140
e 127 141
e 127 143
e 127 144
e 127 145
e 127 146
e 127 147
e 128 129
e 128 134
e 128 135
e 128 136
e 128 139
e 128 140
e 128 142
e 128 149
e 128 150
e 129 130
e 129 135
e 129 137
e 129 139
e 129 146
e 130 131
e 130 133
e 130 134
e 130 137
e 130 144
e 130 145
e 130 146
e 130 148
e 131 132
e 131 133
e 131 134
e 131 138
e 131 140
e 131 141
e 131 144
e 131 148
e 131 150
e 132 135
e 132 137
e 132 141
e 132 146
e 132 147
e 132 149
e 133 137
e 133 139
e 133 143
e 133 144
e 133 147
e 133 148
e 133 150
e 134 143
e 134 144
e 134 146
e 134 149
e 134 150
e 135 136
e 135 141
e 135 143
e 135 150
e 136 138
e 136 139
e 136 140
e 136 141
e 136 142
e 136 149
e 137 138
e 137 139
e 137 142
e 137 145
e 137 147
e 137 148
e 138 139
e 138 144
e 138 145
e 138 146
e 138 147
e 138 148
e 138 150
e 139 142
e 139 144
e 139 145
e 140 141
e 140 143
e 140 146
e 140 147
e 140 150
e 141 143
e 141 144
e 141 146
e 141 150
e 142 148
e 143 144
e 143 149
e 143 150
e 144 150
e 145 148
e 145 150
e 146 147
e 146 148
e 147 149
e 148 149
e 148 150
e 149 150
